language ESSENCE' 1.0

letting n_courses be 108
letting n_periods be 25
letting prerequisite_RelationAsSet_Explicit_1 be
        [1, 1, 1, 1, 1, 1, 2, 2, 2, 2, 2, 2, 2, 2, 2, 2, 3, 3, 3, 3, 3, 3, 3, 3, 3, 3, 3, 4, 4, 4, 4, 4, 4, 4, 4, 4, 4,
         5, 5, 5, 5, 5, 5, 5, 5, 5, 5, 5, 5, 5, 6, 6, 6, 6, 6, 6, 6, 6, 6, 6, 6, 6, 7, 7, 7, 7, 7, 7, 7, 7, 7, 7, 8, 8,
         8, 8, 8, 8, 8, 8, 8, 8, 8, 8, 8, 8, 8, 8, 9, 9, 9, 9, 9, 9, 9, 9, 9, 9, 10, 10, 10, 10, 10, 10, 10, 10, 10, 11,
         11, 11, 11, 11, 11, 11, 11, 11, 11, 11, 11, 12, 12, 12, 12, 12, 12, 12, 12, 12, 12, 12, 12, 13, 13, 13, 13, 13,
         13, 13, 13, 13, 13, 13, 13, 13, 13, 13, 13, 14, 14, 14, 14, 14, 14, 14, 14, 14, 14, 14, 14, 15, 15, 15, 15, 15,
         15, 15, 15, 15, 15, 15, 15, 15, 16, 16, 16, 16, 16, 16, 16, 16, 16, 16, 16, 17, 17, 17, 17, 17, 17, 17, 17, 17,
         17, 17, 17, 17, 17, 18, 18, 18, 18, 18, 18, 18, 18, 18, 18, 18, 18, 18, 18, 18, 19, 19, 19, 19, 19, 19, 20, 20,
         20, 20, 20, 20, 20, 20, 20, 20, 21, 21, 21, 21, 21, 21, 21, 21, 21, 21, 21, 21, 22, 22, 22, 22, 22, 22, 22, 22,
         23, 23, 23, 23, 23, 23, 23, 23, 23, 23, 23, 23, 23, 23, 23, 23, 23, 24, 25, 25, 25, 25, 25, 25, 26, 26, 26, 26,
         26, 26, 27, 28, 28, 28, 28, 28, 28, 29, 29, 29, 30, 30, 30, 30, 30, 31, 31, 31, 31, 32, 32, 32, 32, 32, 32, 32,
         32, 33, 34, 34, 34, 34, 34, 34, 35, 35, 35, 35, 36, 36, 37, 37, 37, 37, 37, 38, 38, 38, 38, 38, 38, 38, 38, 38,
         38, 39, 39, 40, 40, 41, 41, 41, 41, 42, 42, 42, 42, 42, 42, 42, 44, 44, 44, 44, 44, 45, 46, 46, 46, 46, 46, 47,
         47, 47, 48, 48, 48, 48, 49, 49, 49, 49, 49, 50, 50, 50, 51, 51, 51, 51, 51, 52, 52, 52, 52, 52, 52, 52, 53, 53,
         53, 53, 53, 54, 54, 54, 54, 54, 54, 54, 55, 55, 55, 56, 56, 56, 56, 56, 56, 57, 57, 57, 57, 58, 58, 58, 58, 58,
         58, 58, 59, 59, 59, 59, 59, 60, 60, 60, 61, 61, 61, 62, 62, 62, 63, 63, 63, 63, 63, 63, 64, 64, 64, 64, 64, 65,
         65, 66, 66, 66, 66, 67, 67, 67, 67, 67, 67, 68, 68, 68, 68, 69, 69, 70, 70, 70, 70, 70, 70, 72, 72, 72, 72, 72,
         72, 72, 72, 72, 73, 73, 73, 73, 73, 74, 74, 74, 75, 75, 75, 75, 75, 76, 76, 76, 76, 76, 76, 76, 76, 77, 77, 77,
         77, 77, 77, 78, 78, 78, 78, 78;
             int(1..508)]
letting prerequisite_RelationAsSet_Explicit_2 be
        [39, 40, 46, 68, 73, 76, 36, 40, 43, 46, 48, 54, 57, 58, 64, 66, 24, 28, 35, 38, 44, 45, 54, 61, 63, 75, 78, 25,
         39, 44, 49, 57, 59, 61, 66, 67, 76, 24, 25, 30, 32, 38, 41, 43, 52, 53, 54, 68, 73, 77, 25, 26, 28, 32, 33, 35,
         38, 41, 46, 52, 58, 78, 33, 38, 44, 50, 54, 58, 61, 65, 70, 73, 30, 40, 41, 42, 43, 47, 48, 50, 51, 59, 61, 62,
         66, 74, 75, 78, 46, 54, 57, 62, 66, 67, 68, 73, 74, 75, 27, 33, 35, 44, 46, 50, 59, 68, 76, 37, 41, 47, 48, 50,
         56, 62, 68, 72, 75, 76, 78, 25, 27, 40, 45, 48, 53, 58, 60, 65, 68, 71, 78, 24, 25, 27, 29, 40, 46, 47, 52, 55,
         57, 64, 66, 67, 68, 69, 70, 24, 35, 37, 40, 46, 51, 58, 66, 68, 70, 76, 77, 30, 39, 41, 42, 43, 45, 53, 55, 59,
         61, 71, 72, 78, 28, 36, 38, 39, 44, 47, 56, 64, 69, 71, 78, 24, 27, 31, 42, 47, 48, 50, 57, 58, 59, 66, 68, 71,
         75, 24, 29, 30, 33, 37, 46, 48, 49, 52, 59, 65, 66, 69, 71, 77, 28, 30, 39, 45, 53, 55, 28, 30, 31, 32, 35, 52,
         56, 63, 70, 78, 29, 34, 35, 36, 39, 42, 43, 52, 60, 67, 70, 74, 29, 31, 32, 34, 38, 49, 63, 68, 27, 29, 30, 31,
         32, 33, 34, 41, 44, 45, 46, 52, 55, 59, 62, 73, 77, 79, 81, 82, 85, 92, 100, 106, 85, 86, 96, 100, 101, 103,
         86, 79, 81, 86, 88, 104, 108, 79, 95, 106, 84, 91, 92, 101, 102, 90, 91, 99, 103, 79, 81, 94, 97, 99, 103, 105,
         108, 102, 82, 87, 88, 90, 91, 105, 81, 85, 89, 100, 99, 100, 83, 85, 91, 101, 102, 79, 82, 83, 84, 91, 95, 97,
         99, 100, 105, 96, 106, 84, 105, 94, 95, 102, 106, 80, 94, 95, 99, 100, 104, 108, 85, 92, 102, 105, 107, 90, 82,
         88, 97, 104, 106, 99, 102, 104, 79, 91, 98, 101, 88, 93, 95, 97, 105, 80, 93, 95, 83, 89, 94, 100, 107, 81, 87,
         96, 97, 101, 105, 108, 83, 89, 94, 104, 105, 80, 84, 85, 87, 97, 100, 104, 97, 102, 105, 80, 87, 92, 95, 97,
         105, 86, 102, 103, 104, 79, 83, 84, 91, 93, 102, 107, 88, 96, 102, 103, 106, 79, 81, 107, 86, 102, 105, 86, 87,
         104, 80, 90, 91, 98, 103, 105, 79, 85, 88, 89, 104, 93, 102, 82, 85, 89, 101, 79, 81, 82, 87, 95, 101, 79, 92,
         102, 104, 92, 99, 88, 89, 93, 97, 98, 102, 80, 81, 89, 91, 94, 96, 100, 101, 102, 81, 86, 105, 106, 108, 80,
         88, 95, 91, 97, 100, 101, 102, 79, 80, 86, 90, 92, 104, 106, 108, 80, 81, 90, 94, 99, 100, 79, 96, 103, 107,
         108;
             int(1..508)]
letting course_load_Function1D be
        [4, 2, 6, 4, 6, 5, 7, 7, 4, 2, 5, 5, 5, 5, 6, 5, 2, 2, 3, 3, 6, 6, 6, 6, 6, 7, 4, 4, 2, 3, 5, 5, 5, 3, 2, 4, 2,
         2, 4, 4, 6, 3, 4, 4, 4, 4, 5, 7, 2, 5, 2, 5, 5, 2, 6, 2, 6, 6, 3, 5, 6, 2, 2, 7, 4, 6, 5, 2, 3, 3, 4, 6, 2, 5,
         6, 3, 7, 7, 2, 2, 4, 7, 3, 2, 4, 2, 4, 3, 3, 3, 6, 6, 2, 7, 6, 4, 3, 3, 6, 7, 6, 2, 3, 2, 3, 4, 3, 7;
             int(1..108)]
letting load_per_period_ub be 45
letting load_per_period_lb be 7
letting courses_per_period_ub be 9
letting courses_per_period_lb be 4
letting fin1 be 508
letting fin2 be 108
letting fin3 be 7
